33D32945 STP File, STP Format Version 1.0

SECTION Comment
Name "i640-135-PCST"
Creator "Indaco Biazzo" 
Remark "derived from Incidence graph by Cees Duin"
END

SECTION Graph
Nodes 640
Edges 1280
E 1 211 201.000000
E 1 220 198.000000
E 1 235 194.000000
E 1 262 199.000000
E 1 272 192.000000
E 1 280 197.000000
E 1 507 207.000000
E 2 353 212.000000
E 2 452 200.000000
E 2 528 205.000000
E 2 593 205.000000
E 2 629 204.000000
E 3 4 302.000000
E 3 25 303.000000
E 3 84 208.000000
E 3 174 193.000000
E 3 175 200.000000
E 3 320 201.000000
E 3 459 198.000000
E 4 35 198.000000
E 4 350 202.000000
E 4 459 198.000000
E 4 509 203.000000
E 4 514 203.000000
E 5 399 196.000000
E 5 400 198.000000
E 5 573 193.000000
E 5 574 203.000000
E 6 210 205.000000
E 6 301 195.000000
E 6 540 203.000000
E 7 39 186.000000
E 7 65 201.000000
E 7 134 202.000000
E 7 141 200.000000
E 7 235 189.000000
E 7 289 196.000000
E 7 348 203.000000
E 7 377 209.000000
E 7 395 201.000000
E 7 468 206.000000
E 7 477 192.000000
E 7 515 200.000000
E 8 28 201.000000
E 8 388 195.000000
E 9 104 192.000000
E 9 167 208.000000
E 9 289 195.000000
E 9 293 207.000000
E 10 72 202.000000
E 10 616 199.000000
E 11 193 195.000000
E 11 443 200.000000
E 11 532 195.000000
E 11 563 191.000000
E 11 616 197.000000
E 11 633 199.000000
E 12 14 305.000000
E 12 88 202.000000
E 12 238 205.000000
E 12 279 200.000000
E 12 527 201.000000
E 13 80 189.000000
E 13 132 202.000000
E 13 134 196.000000
E 13 187 198.000000
E 13 281 204.000000
E 13 412 195.000000
E 13 552 210.000000
E 13 568 198.000000
E 14 30 200.000000
E 14 119 204.000000
E 14 137 201.000000
E 14 239 200.000000
E 14 318 201.000000
E 14 413 197.000000
E 15 96 202.000000
E 15 234 190.000000
E 15 493 192.000000
E 15 570 193.000000
E 16 89 203.000000
E 16 182 202.000000
E 16 296 202.000000
E 16 399 199.000000
E 16 599 200.000000
E 17 175 204.000000
E 17 385 195.000000
E 17 469 201.000000
E 18 152 202.000000
E 18 268 196.000000
E 19 71 203.000000
E 19 102 199.000000
E 19 110 193.000000
E 19 394 194.000000
E 19 408 200.000000
E 19 432 197.000000
E 20 32 200.000000
E 20 55 206.000000
E 20 94 196.000000
E 20 105 189.000000
E 20 272 201.000000
E 20 288 207.000000
E 20 334 201.000000
E 20 372 205.000000
E 20 376 190.000000
E 21 340 188.000000
E 21 458 195.000000
E 22 558 193.000000
E 22 627 203.000000
E 23 81 205.000000
E 23 404 203.000000
E 23 415 204.000000
E 23 451 202.000000
E 23 552 205.000000
E 24 40 193.000000
E 24 135 197.000000
E 24 269 204.000000
E 24 420 200.000000
E 24 521 198.000000
E 24 536 201.000000
E 25 271 205.000000
E 25 417 203.000000
E 25 578 200.000000
E 26 42 98.000000
E 26 106 92.000000
E 26 161 103.000000
E 26 235 100.000000
E 26 331 95.000000
E 26 443 100.000000
E 26 450 101.000000
E 26 624 94.000000
E 27 364 96.000000
E 27 532 94.000000
E 28 95 101.000000
E 28 552 94.000000
E 29 70 96.000000
E 29 117 101.000000
E 29 278 104.000000
E 29 597 94.000000
E 30 82 100.000000
E 30 133 93.000000
E 30 292 98.000000
E 30 515 98.000000
E 31 568 97.000000
E 32 314 91.000000
E 32 368 100.000000
E 32 474 101.000000
E 32 630 100.000000
E 33 47 103.000000
E 33 135 101.000000
E 33 304 93.000000
E 33 408 110.000000
E 34 522 103.000000
E 35 260 101.000000
E 35 414 94.000000
E 36 77 97.000000
E 36 316 96.000000
E 36 489 98.000000
E 36 592 92.000000
E 37 73 86.000000
E 37 129 104.000000
E 37 383 107.000000
E 37 494 105.000000
E 38 272 104.000000
E 38 452 97.000000
E 38 512 94.000000
E 39 42 99.000000
E 39 68 96.000000
E 39 165 104.000000
E 39 447 99.000000
E 39 470 97.000000
E 39 625 101.000000
E 40 85 99.000000
E 40 134 93.000000
E 40 398 104.000000
E 40 425 97.000000
E 40 497 103.000000
E 41 426 95.000000
E 41 550 100.000000
E 41 599 94.000000
E 42 110 104.000000
E 42 249 99.000000
E 42 285 106.000000
E 42 290 99.000000
E 42 354 102.000000
E 42 399 103.000000
E 43 408 95.000000
E 43 579 102.000000
E 43 583 98.000000
E 43 615 91.000000
E 44 620 103.000000
E 45 116 102.000000
E 45 272 103.000000
E 45 350 100.000000
E 45 386 97.000000
E 45 567 92.000000
E 46 165 102.000000
E 46 241 100.000000
E 46 339 111.000000
E 46 375 104.000000
E 46 510 101.000000
E 46 594 108.000000
E 47 206 93.000000
E 47 443 94.000000
E 47 514 98.000000
E 47 565 93.000000
E 47 601 105.000000
E 48 87 92.000000
E 48 207 97.000000
E 48 242 99.000000
E 48 325 92.000000
E 48 442 96.000000
E 48 558 92.000000
E 49 70 107.000000
E 49 77 98.000000
E 49 108 102.000000
E 49 400 107.000000
E 49 415 100.000000
E 49 469 108.000000
E 49 481 102.000000
E 50 375 96.000000
E 50 376 91.000000
E 50 418 98.000000
E 50 431 105.000000
E 50 518 103.000000
E 50 553 92.000000
E 50 572 91.000000
E 51 117 97.000000
E 51 164 101.000000
E 51 540 102.000000
E 51 582 96.000000
E 52 74 97.000000
E 53 294 104.000000
E 53 552 104.000000
E 53 561 103.000000
E 54 64 103.000000
E 54 113 102.000000
E 54 114 95.000000
E 54 151 108.000000
E 54 270 101.000000
E 54 437 98.000000
E 54 441 108.000000
E 55 245 100.000000
E 55 249 98.000000
E 55 484 91.000000
E 55 528 98.000000
E 55 540 85.000000
E 56 341 104.000000
E 56 442 97.000000
E 56 554 98.000000
E 56 565 104.000000
E 57 110 97.000000
E 58 85 98.000000
E 58 187 100.000000
E 58 193 100.000000
E 58 239 99.000000
E 58 313 96.000000
E 58 404 110.000000
E 58 493 99.000000
E 59 171 103.000000
E 59 522 108.000000
E 59 614 93.000000
E 60 124 94.000000
E 60 229 106.000000
E 60 400 100.000000
E 61 242 96.000000
E 62 252 95.000000
E 62 410 99.000000
E 62 452 96.000000
E 63 91 102.000000
E 63 157 87.000000
E 63 225 104.000000
E 63 271 110.000000
E 63 285 99.000000
E 63 337 100.000000
E 63 349 99.000000
E 63 365 97.000000
E 63 397 108.000000
E 63 398 107.000000
E 63 486 99.000000
E 63 519 101.000000
E 64 516 93.000000
E 64 565 101.000000
E 65 423 95.000000
E 65 551 99.000000
E 65 568 104.000000
E 66 134 99.000000
E 66 138 104.000000
E 66 354 102.000000
E 66 458 101.000000
E 66 640 102.000000
E 67 149 99.000000
E 67 300 97.000000
E 67 358 99.000000
E 67 560 103.000000
E 68 75 99.000000
E 68 84 101.000000
E 68 476 101.000000
E 69 181 97.000000
E 69 367 95.000000
E 69 381 99.000000
E 69 498 91.000000
E 70 72 102.000000
E 70 163 96.000000
E 71 113 102.000000
E 71 214 101.000000
E 71 241 98.000000
E 71 298 91.000000
E 72 79 100.000000
E 72 88 95.000000
E 72 337 94.000000
E 72 463 109.000000
E 73 275 95.000000
E 74 251 97.000000
E 74 276 100.000000
E 74 508 105.000000
E 74 536 98.000000
E 75 617 101.000000
E 76 286 102.000000
E 76 393 100.000000
E 76 431 103.000000
E 76 443 99.000000
E 76 451 98.000000
E 76 607 99.000000
E 76 615 101.000000
E 77 92 106.000000
E 77 335 95.000000
E 77 483 101.000000
E 78 130 90.000000
E 78 179 102.000000
E 78 365 91.000000
E 78 368 102.000000
E 78 473 83.000000
E 79 479 106.000000
E 79 505 101.000000
E 79 515 95.000000
E 79 526 97.000000
E 81 82 99.000000
E 81 168 108.000000
E 81 192 96.000000
E 82 239 102.000000
E 82 319 93.000000
E 82 538 96.000000
E 83 299 99.000000
E 83 584 98.000000
E 84 187 106.000000
E 85 381 98.000000
E 85 426 109.000000
E 85 441 106.000000
E 85 490 94.000000
E 85 632 94.000000
E 86 159 101.000000
E 86 180 101.000000
E 86 415 102.000000
E 86 519 101.000000
E 87 96 98.000000
E 87 452 97.000000
E 87 479 97.000000
E 87 481 104.000000
E 87 567 108.000000
E 89 128 108.000000
E 89 582 94.000000
E 90 168 92.000000
E 90 272 104.000000
E 90 373 104.000000
E 91 342 89.000000
E 91 378 100.000000
E 92 358 98.000000
E 92 443 103.000000
E 92 583 97.000000
E 93 379 102.000000
E 93 400 95.000000
E 93 426 103.000000
E 93 437 102.000000
E 94 97 100.000000
E 94 275 98.000000
E 94 466 107.000000
E 94 521 102.000000
E 94 574 91.000000
E 94 614 99.000000
E 95 422 105.000000
E 95 465 98.000000
E 95 633 108.000000
E 96 136 109.000000
E 96 275 102.000000
E 96 446 106.000000
E 96 527 103.000000
E 97 199 91.000000
E 97 306 101.000000
E 97 493 102.000000
E 98 158 99.000000
E 98 381 96.000000
E 99 253 96.000000
E 99 377 100.000000
E 100 117 108.000000
E 100 264 104.000000
E 100 312 106.000000
E 100 509 102.000000
E 100 578 99.000000
E 101 411 92.000000
E 101 447 101.000000
E 101 457 109.000000
E 101 482 102.000000
E 102 218 98.000000
E 102 238 88.000000
E 102 242 92.000000
E 102 250 97.000000
E 102 334 90.000000
E 102 586 98.000000
E 103 117 103.000000
E 103 126 108.000000
E 103 158 105.000000
E 103 469 100.000000
E 103 633 98.000000
E 104 277 101.000000
E 104 555 93.000000
E 104 589 100.000000
E 105 379 103.000000
E 106 456 97.000000
E 106 483 106.000000
E 106 566 104.000000
E 107 224 100.000000
E 107 305 104.000000
E 107 465 101.000000
E 107 556 101.000000
E 107 591 95.000000
E 108 112 89.000000
E 108 524 105.000000
E 108 546 98.000000
E 108 620 93.000000
E 108 629 88.000000
E 109 209 90.000000
E 109 351 94.000000
E 109 394 103.000000
E 109 428 101.000000
E 109 460 100.000000
E 110 534 100.000000
E 111 137 105.000000
E 111 309 98.000000
E 112 202 95.000000
E 112 523 102.000000
E 112 633 103.000000
E 113 123 107.000000
E 113 148 103.000000
E 113 158 103.000000
E 113 280 103.000000
E 113 281 101.000000
E 113 591 99.000000
E 114 257 100.000000
E 114 517 110.000000
E 114 611 94.000000
E 115 321 101.000000
E 115 379 103.000000
E 115 537 97.000000
E 115 578 97.000000
E 116 129 104.000000
E 116 228 102.000000
E 116 529 109.000000
E 116 599 105.000000
E 117 155 97.000000
E 117 161 101.000000
E 117 200 97.000000
E 117 584 98.000000
E 117 597 101.000000
E 118 273 102.000000
E 119 191 101.000000
E 119 221 91.000000
E 119 227 101.000000
E 119 436 92.000000
E 119 621 110.000000
E 120 380 100.000000
E 120 420 110.000000
E 120 423 108.000000
E 120 532 95.000000
E 121 282 106.000000
E 121 339 102.000000
E 122 197 95.000000
E 122 302 97.000000
E 122 350 100.000000
E 123 302 101.000000
E 123 485 99.000000
E 124 156 88.000000
E 124 554 96.000000
E 124 632 99.000000
E 125 137 99.000000
E 125 253 101.000000
E 125 437 100.000000
E 126 152 102.000000
E 126 264 100.000000
E 126 395 93.000000
E 126 534 104.000000
E 127 310 93.000000
E 127 585 97.000000
E 127 635 96.000000
E 128 311 98.000000
E 128 421 100.000000
E 129 197 103.000000
E 129 395 99.000000
E 130 189 88.000000
E 130 274 103.000000
E 130 327 103.000000
E 130 422 100.000000
E 130 449 95.000000
E 130 596 106.000000
E 130 638 106.000000
E 131 214 99.000000
E 131 245 101.000000
E 131 607 92.000000
E 132 269 98.000000
E 132 365 86.000000
E 133 154 89.000000
E 133 186 99.000000
E 134 263 102.000000
E 134 483 94.000000
E 134 500 106.000000
E 135 146 102.000000
E 135 463 89.000000
E 135 538 103.000000
E 135 567 101.000000
E 135 568 99.000000
E 136 137 97.000000
E 137 152 109.000000
E 137 228 99.000000
E 137 279 100.000000
E 137 281 103.000000
E 137 336 99.000000
E 137 346 104.000000
E 137 452 107.000000
E 137 605 95.000000
E 137 638 101.000000
E 138 179 101.000000
E 138 289 97.000000
E 139 170 103.000000
E 139 204 100.000000
E 140 210 100.000000
E 140 522 102.000000
E 140 545 99.000000
E 140 621 107.000000
E 141 487 105.000000
E 141 525 95.000000
E 142 163 91.000000
E 142 181 104.000000
E 142 235 96.000000
E 142 456 100.000000
E 142 539 95.000000
E 143 156 108.000000
E 143 583 92.000000
E 144 470 100.000000
E 145 266 103.000000
E 145 272 100.000000
E 145 373 96.000000
E 145 397 93.000000
E 146 301 101.000000
E 146 530 96.000000
E 146 551 99.000000
E 147 536 100.000000
E 147 605 93.000000
E 147 619 96.000000
E 148 205 99.000000
E 149 639 97.000000
E 150 162 100.000000
E 150 232 105.000000
E 150 473 98.000000
E 150 478 97.000000
E 150 592 101.000000
E 150 623 98.000000
E 151 211 102.000000
E 151 317 104.000000
E 151 491 102.000000
E 151 569 106.000000
E 152 306 99.000000
E 152 397 107.000000
E 153 313 104.000000
E 153 366 93.000000
E 153 490 97.000000
E 153 531 108.000000
E 153 564 97.000000
E 154 199 96.000000
E 155 531 100.000000
E 155 554 97.000000
E 155 601 101.000000
E 155 617 113.000000
E 156 174 97.000000
E 156 267 95.000000
E 158 249 96.000000
E 158 269 94.000000
E 158 294 104.000000
E 158 323 99.000000
E 158 348 102.000000
E 158 593 96.000000
E 159 171 100.000000
E 159 195 101.000000
E 159 216 104.000000
E 160 189 109.000000
E 160 357 107.000000
E 161 170 101.000000
E 161 174 95.000000
E 161 175 94.000000
E 161 371 95.000000
E 161 446 111.000000
E 161 538 110.000000
E 161 568 97.000000
E 161 581 91.000000
E 162 336 95.000000
E 162 507 105.000000
E 162 528 105.000000
E 163 333 98.000000
E 163 415 100.000000
E 163 605 97.000000
E 165 224 103.000000
E 165 336 108.000000
E 165 507 99.000000
E 166 358 104.000000
E 166 401 106.000000
E 166 567 96.000000
E 166 631 97.000000
E 167 199 94.000000
E 167 205 102.000000
E 167 347 103.000000
E 168 580 107.000000
E 169 234 91.000000
E 169 324 96.000000
E 169 602 93.000000
E 170 208 99.000000
E 170 574 94.000000
E 171 529 104.000000
E 172 239 106.000000
E 172 583 96.000000
E 172 585 90.000000
E 173 301 102.000000
E 173 313 95.000000
E 173 400 103.000000
E 173 559 100.000000
E 174 433 97.000000
E 175 314 103.000000
E 175 400 96.000000
E 175 424 98.000000
E 175 512 104.000000
E 176 391 97.000000
E 176 545 103.000000
E 177 188 99.000000
E 177 241 106.000000
E 177 268 103.000000
E 177 313 91.000000
E 177 346 98.000000
E 177 381 102.000000
E 177 387 95.000000
E 177 410 102.000000
E 177 461 95.000000
E 177 499 99.000000
E 177 557 91.000000
E 178 286 101.000000
E 178 575 94.000000
E 178 602 104.000000
E 179 424 104.000000
E 179 442 93.000000
E 181 241 98.000000
E 181 610 102.000000
E 182 242 104.000000
E 183 185 99.000000
E 183 236 92.000000
E 183 501 105.000000
E 183 564 93.000000
E 183 636 92.000000
E 184 254 104.000000
E 184 323 105.000000
E 185 285 98.000000
E 185 413 101.000000
E 185 628 101.000000
E 186 407 106.000000
E 187 228 100.000000
E 187 370 105.000000
E 187 540 95.000000
E 187 632 95.000000
E 188 499 107.000000
E 188 552 101.000000
E 189 504 105.000000
E 189 538 99.000000
E 189 549 101.000000
E 190 261 102.000000
E 190 397 103.000000
E 190 541 97.000000
E 190 578 97.000000
E 191 295 103.000000
E 192 300 100.000000
E 192 321 105.000000
E 192 538 98.000000
E 193 319 91.000000
E 193 618 103.000000
E 194 215 100.000000
E 194 439 96.000000
E 194 517 98.000000
E 195 216 95.000000
E 195 235 100.000000
E 195 253 105.000000
E 195 429 92.000000
E 195 451 103.000000
E 195 492 106.000000
E 195 529 99.000000
E 196 213 98.000000
E 196 242 94.000000
E 197 284 92.000000
E 197 313 97.000000
E 197 460 89.000000
E 198 580 104.000000
E 199 509 101.000000
E 199 569 99.000000
E 200 321 103.000000
E 201 307 97.000000
E 201 340 97.000000
E 201 506 97.000000
E 201 597 102.000000
E 202 330 99.000000
E 202 337 92.000000
E 202 443 105.000000
E 202 500 104.000000
E 202 547 102.000000
E 202 612 93.000000
E 203 217 95.000000
E 203 237 99.000000
E 203 329 89.000000
E 203 437 101.000000
E 203 634 98.000000
E 204 239 98.000000
E 204 319 91.000000
E 204 404 95.000000
E 204 456 98.000000
E 206 456 108.000000
E 207 385 99.000000
E 207 500 101.000000
E 207 529 103.000000
E 208 383 103.000000
E 208 489 92.000000
E 208 598 107.000000
E 209 315 90.000000
E 209 398 101.000000
E 209 449 103.000000
E 209 548 104.000000
E 210 379 103.000000
E 210 440 106.000000
E 210 623 99.000000
E 211 500 104.000000
E 212 270 108.000000
E 212 289 104.000000
E 212 474 99.000000
E 213 356 102.000000
E 213 444 92.000000
E 213 618 92.000000
E 214 383 96.000000
E 214 441 100.000000
E 215 301 103.000000
E 215 347 106.000000
E 215 526 104.000000
E 216 315 100.000000
E 217 316 102.000000
E 217 343 96.000000
E 217 364 100.000000
E 217 482 101.000000
E 217 571 100.000000
E 218 245 95.000000
E 218 299 91.000000
E 218 457 101.000000
E 219 442 103.000000
E 219 525 105.000000
E 219 597 100.000000
E 220 303 100.000000
E 220 452 101.000000
E 220 495 103.000000
E 220 510 95.000000
E 221 276 98.000000
E 221 381 95.000000
E 221 458 95.000000
E 222 285 92.000000
E 223 273 101.000000
E 223 322 98.000000
E 223 429 92.000000
E 223 544 103.000000
E 226 279 99.000000
E 226 320 101.000000
E 226 443 93.000000
E 227 240 102.000000
E 227 355 102.000000
E 228 382 94.000000
E 228 595 100.000000
E 229 235 103.000000
E 229 593 105.000000
E 230 450 103.000000
E 230 499 94.000000
E 230 531 96.000000
E 231 387 101.000000
E 231 405 93.000000
E 231 466 100.000000
E 231 480 95.000000
E 232 432 96.000000
E 232 615 94.000000
E 233 310 98.000000
E 233 319 96.000000
E 233 481 96.000000
E 235 320 98.000000
E 235 323 99.000000
E 235 374 99.000000
E 235 377 93.000000
E 235 393 97.000000
E 235 458 108.000000
E 235 574 108.000000
E 235 624 100.000000
E 236 503 100.000000
E 237 292 107.000000
E 237 423 105.000000
E 237 635 94.000000
E 238 264 96.000000
E 238 267 98.000000
E 238 396 92.000000
E 239 276 96.000000
E 239 406 106.000000
E 239 485 94.000000
E 239 590 95.000000
E 241 417 104.000000
E 241 486 91.000000
E 241 509 93.000000
E 241 623 103.000000
E 242 314 108.000000
E 242 413 104.000000
E 242 560 102.000000
E 242 621 101.000000
E 243 339 97.000000
E 244 305 103.000000
E 244 574 98.000000
E 245 361 99.000000
E 245 381 108.000000
E 246 383 102.000000
E 246 392 102.000000
E 246 563 111.000000
E 246 582 94.000000
E 247 359 101.000000
E 247 360 100.000000
E 247 438 99.000000
E 247 452 105.000000
E 248 332 97.000000
E 248 404 96.000000
E 248 501 101.000000
E 248 503 93.000000
E 249 253 104.000000
E 249 367 105.000000
E 249 380 106.000000
E 251 304 105.000000
E 251 331 96.000000
E 252 639 93.000000
E 253 525 102.000000
E 253 534 98.000000
E 253 598 99.000000
E 254 274 102.000000
E 254 324 99.000000
E 254 445 110.000000
E 254 557 101.000000
E 255 261 104.000000
E 255 469 98.000000
E 255 622 102.000000
E 256 499 105.000000
E 256 567 106.000000
E 256 630 96.000000
E 257 285 94.000000
E 257 326 105.000000
E 257 468 107.000000
E 257 477 98.000000
E 258 579 107.000000
E 259 381 95.000000
E 259 396 93.000000
E 260 311 92.000000
E 260 353 99.000000
E 260 574 99.000000
E 260 625 89.000000
E 261 267 97.000000
E 261 513 108.000000
E 261 630 105.000000
E 262 298 97.000000
E 262 498 99.000000
E 262 546 100.000000
E 262 631 92.000000
E 263 429 97.000000
E 263 435 95.000000
E 264 295 105.000000
E 264 528 102.000000
E 264 614 106.000000
E 265 387 109.000000
E 266 431 106.000000
E 266 517 94.000000
E 266 625 103.000000
E 267 289 98.000000
E 267 485 98.000000
E 267 561 104.000000
E 268 547 103.000000
E 269 337 96.000000
E 269 494 103.000000
E 269 498 99.000000
E 270 432 107.000000
E 270 465 95.000000
E 270 496 106.000000
E 270 590 93.000000
E 270 626 102.000000
E 271 296 103.000000
E 271 455 98.000000
E 271 519 93.000000
E 271 520 92.000000
E 271 556 99.000000
E 272 430 106.000000
E 272 483 96.000000
E 273 362 99.000000
E 273 388 95.000000
E 273 491 98.000000
E 274 383 103.000000
E 274 483 104.000000
E 275 490 96.000000
E 275 530 99.000000
E 276 398 94.000000
E 276 443 100.000000
E 276 510 90.000000
E 276 605 99.000000
E 277 309 100.000000
E 277 497 92.000000
E 278 304 98.000000
E 278 528 102.000000
E 279 568 96.000000
E 280 425 99.000000
E 280 522 99.000000
E 281 287 103.000000
E 281 506 103.000000
E 282 602 97.000000
E 283 409 110.000000
E 283 469 94.000000
E 285 332 98.000000
E 285 465 95.000000
E 286 364 101.000000
E 286 408 100.000000
E 286 507 102.000000
E 286 568 97.000000
E 287 422 89.000000
E 287 545 108.000000
E 288 430 106.000000
E 290 306 96.000000
E 290 406 103.000000
E 290 635 93.000000
E 291 476 107.000000
E 292 354 94.000000
E 294 400 103.000000
E 294 497 99.000000
E 295 504 87.000000
E 296 431 111.000000
E 296 462 97.000000
E 296 542 97.000000
E 296 631 99.000000
E 297 356 101.000000
E 297 386 108.000000
E 297 467 103.000000
E 297 511 100.000000
E 298 305 103.000000
E 298 411 107.000000
E 298 637 98.000000
E 300 512 95.000000
E 301 443 91.000000
E 301 619 99.000000
E 302 634 104.000000
E 304 563 90.000000
E 305 309 101.000000
E 306 318 102.000000
E 306 478 103.000000
E 306 558 102.000000
E 306 578 102.000000
E 306 587 97.000000
E 306 610 93.000000
E 307 322 95.000000
E 307 563 101.000000
E 308 407 95.000000
E 308 431 96.000000
E 310 315 99.000000
E 311 325 101.000000
E 313 434 104.000000
E 313 494 94.000000
E 314 575 98.000000
E 314 631 96.000000
E 315 523 101.000000
E 316 452 96.000000
E 316 518 100.000000
E 316 620 103.000000
E 316 632 103.000000
E 318 335 105.000000
E 319 469 100.000000
E 319 545 94.000000
E 321 378 90.000000
E 324 600 98.000000
E 325 362 111.000000
E 325 368 102.000000
E 325 408 95.000000
E 326 364 104.000000
E 328 568 93.000000
E 330 387 105.000000
E 330 545 103.000000
E 331 613 94.000000
E 332 595 100.000000
E 333 374 90.000000
E 334 547 94.000000
E 334 592 104.000000
E 335 427 99.000000
E 336 532 103.000000
E 336 578 101.000000
E 336 584 103.000000
E 336 606 103.000000
E 337 540 97.000000
E 338 366 91.000000
E 338 381 100.000000
E 338 454 95.000000
E 338 546 107.000000
E 340 421 97.000000
E 341 497 88.000000
E 342 354 99.000000
E 342 487 100.000000
E 343 472 103.000000
E 343 532 90.000000
E 344 403 91.000000
E 344 442 101.000000
E 344 462 98.000000
E 344 519 97.000000
E 345 347 103.000000
E 345 446 98.000000
E 346 355 103.000000
E 347 491 97.000000
E 348 371 101.000000
E 349 416 104.000000
E 349 600 101.000000
E 350 609 104.000000
E 351 618 99.000000
E 352 465 103.000000
E 352 474 100.000000
E 353 426 97.000000
E 353 485 98.000000
E 353 528 101.000000
E 353 570 100.000000
E 354 550 95.000000
E 355 387 102.000000
E 355 390 100.000000
E 355 459 105.000000
E 356 368 94.000000
E 356 381 103.000000
E 356 401 98.000000
E 356 503 110.000000
E 356 634 102.000000
E 357 412 106.000000
E 357 574 93.000000
E 358 429 98.000000
E 358 470 102.000000
E 358 540 99.000000
E 358 545 96.000000
E 359 574 99.000000
E 360 370 99.000000
E 361 421 94.000000
E 361 560 93.000000
E 363 532 97.000000
E 364 478 99.000000
E 364 533 100.000000
E 366 626 96.000000
E 369 547 96.000000
E 372 518 94.000000
E 373 399 100.000000
E 374 397 100.000000
E 374 615 106.000000
E 374 630 109.000000
E 375 423 96.000000
E 375 627 108.000000
E 376 548 92.000000
E 376 616 92.000000
E 377 397 91.000000
E 377 549 97.000000
E 378 380 101.000000
E 378 466 107.000000
E 379 470 100.000000
E 380 415 91.000000
E 380 445 91.000000
E 380 578 100.000000
E 381 454 105.000000
E 382 392 99.000000
E 382 482 98.000000
E 383 549 102.000000
E 383 612 105.000000
E 384 391 93.000000
E 384 427 103.000000
E 384 531 109.000000
E 385 470 96.000000
E 385 498 106.000000
E 385 500 95.000000
E 385 530 99.000000
E 386 599 97.000000
E 387 436 110.000000
E 387 629 99.000000
E 388 624 106.000000
E 388 636 97.000000
E 389 516 92.000000
E 389 542 103.000000
E 391 626 98.000000
E 392 420 96.000000
E 393 608 95.000000
E 396 519 97.000000
E 398 441 92.000000
E 398 529 107.000000
E 399 555 96.000000
E 400 477 97.000000
E 401 483 105.000000
E 401 532 99.000000
E 401 545 97.000000
E 402 421 96.000000
E 402 614 100.000000
E 403 604 100.000000
E 404 454 104.000000
E 404 498 103.000000
E 406 494 105.000000
E 406 515 104.000000
E 407 415 101.000000
E 407 436 99.000000
E 408 523 100.000000
E 408 553 99.000000
E 409 556 99.000000
E 412 452 95.000000
E 413 610 104.000000
E 413 620 95.000000
E 416 505 93.000000
E 416 525 103.000000
E 418 448 90.000000
E 419 484 94.000000
E 420 626 93.000000
E 421 497 93.000000
E 421 633 103.000000
E 423 436 95.000000
E 423 453 104.000000
E 423 584 97.000000
E 424 535 93.000000
E 424 621 97.000000
E 425 511 111.000000
E 425 529 94.000000
E 425 577 98.000000
E 425 629 101.000000
E 426 492 97.000000
E 427 475 99.000000
E 428 599 106.000000
E 429 495 98.000000
E 430 435 93.000000
E 431 454 94.000000
E 431 477 91.000000
E 434 611 102.000000
E 436 451 107.000000
E 437 518 96.000000
E 437 608 88.000000
E 439 477 105.000000
E 440 458 100.000000
E 441 555 103.000000
E 442 471 97.000000
E 442 585 97.000000
E 443 459 98.000000
E 445 460 97.000000
E 445 462 104.000000
E 445 519 95.000000
E 446 593 102.000000
E 449 453 95.000000
E 449 528 92.000000
E 451 563 91.000000
E 451 580 98.000000
E 452 532 91.000000
E 452 544 97.000000
E 454 468 103.000000
E 454 589 95.000000
E 456 468 104.000000
E 456 551 99.000000
E 457 474 99.000000
E 458 484 102.000000
E 458 494 96.000000
E 459 469 103.000000
E 459 640 97.000000
E 460 609 103.000000
E 462 571 114.000000
E 462 614 98.000000
E 463 502 92.000000
E 464 516 103.000000
E 464 621 93.000000
E 466 487 104.000000
E 466 594 95.000000
E 467 475 94.000000
E 467 507 102.000000
E 467 543 100.000000
E 471 546 100.000000
E 471 550 94.000000
E 471 630 105.000000
E 472 555 100.000000
E 473 563 92.000000
E 474 526 114.000000
E 476 551 102.000000
E 479 609 98.000000
E 481 508 107.000000
E 482 567 102.000000
E 483 544 97.000000
E 484 622 92.000000
E 485 533 97.000000
E 485 566 105.000000
E 486 513 104.000000
E 486 618 97.000000
E 488 580 92.000000
E 488 602 101.000000
E 489 506 97.000000
E 490 580 100.000000
E 490 604 112.000000
E 491 527 99.000000
E 493 637 94.000000
E 497 622 100.000000
E 499 575 98.000000
E 499 576 90.000000
E 500 509 88.000000
E 501 567 99.000000
E 501 599 97.000000
E 501 612 106.000000
E 502 537 101.000000
E 502 576 106.000000
E 502 621 106.000000
E 505 624 102.000000
E 505 635 107.000000
E 506 553 93.000000
E 508 607 104.000000
E 509 515 100.000000
E 510 615 99.000000
E 510 634 97.000000
E 512 611 102.000000
E 512 619 101.000000
E 512 639 100.000000
E 514 603 97.000000
E 514 604 100.000000
E 517 534 106.000000
E 521 588 99.000000
E 521 622 92.000000
E 524 550 99.000000
E 525 538 105.000000
E 525 571 99.000000
E 525 621 100.000000
E 526 621 102.000000
E 528 637 96.000000
E 529 578 96.000000
E 530 553 100.000000
E 531 625 104.000000
E 535 623 96.000000
E 536 565 103.000000
E 537 586 92.000000
E 539 609 105.000000
E 542 557 91.000000
E 545 573 96.000000
E 548 552 95.000000
E 548 570 97.000000
E 552 617 99.000000
E 554 593 104.000000
E 555 631 102.000000
E 557 591 96.000000
E 558 562 100.000000
E 558 602 96.000000
E 559 579 105.000000
E 560 615 101.000000
E 562 575 99.000000
E 563 621 96.000000
E 564 615 88.000000
E 566 607 93.000000
E 567 596 98.000000
E 567 615 98.000000
E 569 628 105.000000
E 571 588 90.000000
E 574 612 104.000000
E 576 580 101.000000
E 577 613 95.000000
E 578 637 96.000000
E 588 624 93.000000
E 589 639 98.000000
E 592 596 105.000000
E 593 634 95.000000
E 600 635 102.000000
E 602 604 101.000000
E 603 620 90.000000
E 608 635 102.000000
E 626 639 99.000000
END

SECTION Terminals
Terminals 25
TP 1 440.000000
TP 2 980.000000
TP 3 760.000000
TP 4 1020.000000
TP 5 852.000000
TP 6 608.000000
TP 7 528.000000
TP 8 92.000000
TP 9 28.000000
TP 10 1208.000000
TP 11 1056.000000
TP 12 1124.000000
TP 13 772.000000
TP 14 936.000000
TP 15 1212.000000
TP 16 312.000000
TP 17 168.000000
TP 18 100.000000
TP 19 664.000000
TP 20 1080.000000
TP 21 292.000000
TP 22 400.000000
TP 23 884.000000
TP 24 1064.000000
TP 25 132.000000
END

EOF
